(set-logic HORN)
(declare-datatypes ((Bool_41 0)) (((false_41 ) (true_41 ))))
(declare-fun diseqBool_15 (Bool_41 Bool_41) Bool)
(declare-fun isfalse_15 (Bool_41) Bool)
(declare-fun istrue_15 (Bool_41) Bool)
(assert (isfalse_15 false_41))
(assert (istrue_15 true_41))
(assert (diseqBool_15 false_41 true_41))
(assert (diseqBool_15 true_41 false_41))
(declare-fun and_41 (Bool_41 Bool_41 Bool_41) Bool)
(declare-fun or_41 (Bool_41 Bool_41 Bool_41) Bool)
(declare-fun hence_41 (Bool_41 Bool_41 Bool_41) Bool)
(declare-fun not_41 (Bool_41 Bool_41) Bool)
(assert (and_41 false_41 false_41 false_41))
(assert (and_41 false_41 true_41 false_41))
(assert (and_41 false_41 false_41 true_41))
(assert (and_41 true_41 true_41 true_41))
(assert (or_41 false_41 false_41 false_41))
(assert (or_41 true_41 true_41 false_41))
(assert (or_41 true_41 false_41 true_41))
(assert (or_41 true_41 true_41 true_41))
(assert (hence_41 true_41 false_41 false_41))
(assert (hence_41 false_41 true_41 false_41))
(assert (hence_41 true_41 false_41 true_41))
(assert (hence_41 true_41 true_41 true_41))
(assert (not_41 true_41 false_41))
(assert (not_41 false_41 true_41))
(declare-datatypes ((Nat_79 0)) (((Z_224 ) (S_79 (projS_76 Nat_79)))))
(declare-fun diseqNat_79 (Nat_79 Nat_79) Bool)
(declare-fun projS_77 (Nat_79 Nat_79) Bool)
(declare-fun isZ_79 (Nat_79) Bool)
(declare-fun isS_79 (Nat_79) Bool)
(assert (forall ((x_2239 Nat_79))
	(projS_77 x_2239 (S_79 x_2239))))
(assert (isZ_79 Z_224))
(assert (forall ((x_2241 Nat_79))
	(isS_79 (S_79 x_2241))))
(assert (forall ((x_2242 Nat_79))
	(diseqNat_79 Z_224 (S_79 x_2242))))
(assert (forall ((x_2243 Nat_79))
	(diseqNat_79 (S_79 x_2243) Z_224)))
(assert (forall ((x_2244 Nat_79) (x_2245 Nat_79))
	(=> (diseqNat_79 x_2244 x_2245)
	    (diseqNat_79 (S_79 x_2244) (S_79 x_2245)))))
(declare-fun x_2221 (Bool_41 Nat_79 Nat_79) Bool)
(assert (forall ((x_2226 Bool_41) (x_2223 Nat_79) (z_225 Nat_79))
	(=> (x_2221 x_2226 x_2223 z_225)
	    (x_2221 x_2226 (S_79 x_2223) (S_79 z_225)))))
(assert (forall ((z_225 Nat_79))
	(x_2221 true_41 Z_224 (S_79 z_225))))
(assert (forall ((x_2222 Nat_79))
	(x_2221 false_41 x_2222 Z_224)))
(declare-fun x_2224 (Nat_79 Nat_79 Nat_79) Bool)
(assert (forall ((x_2231 Nat_79) (z_226 Nat_79) (y_177 Nat_79))
	(=> (x_2224 x_2231 z_226 y_177)
	    (x_2224 (S_79 x_2231) (S_79 z_226) y_177))))
(assert (forall ((x_2232 Nat_79))
	(x_2224 x_2232 Z_224 x_2232)))
(assert (forall ((x_2233 Nat_79) (i_3 Nat_79) (m_6 Nat_79))
	(=>	(and true
			(x_2224 x_2233 i_3 m_6)
			(x_2221 false_41 i_3 (S_79 x_2233)))
		false)))
(check-sat)
